Route #0: 42 15 43 14 44 38 86 16 61 85 91 100
Route #1: 4 25 55 39 67 23 56 75 22 41 74 72
Route #2: 50 51 9 81 78 34 35 65 71 66 20 30 70 1
Route #3: 40 21 73 2 57 87 97 92 37 98 93 59 99 96 95
Route #4: 6 5 84 17 45 46 47 36 49 64 11 63 90 32 10 69
Route #5: 26 54 24 29 79 33 3 77 68 80 12 76 28
Route #6: 27 31 7 88 62 19 48 82 8 83 60 18 52
Route #7: 53 58 13 94 89
Cost 877.934781090674
Time 39
